(set-logic UF)
(declare-sort Set 0)
(declare-sort Elem 0)
(declare-fun member (Elem Set) Bool)
(declare-fun subset (Set Set) Bool)
(declare-fun seteq (Set Set) Bool)
(declare-fun union (Set Set) Set)
(declare-fun intersection (Set Set) Set)
(declare-fun difference (Set Set) Set)
(declare-fun a () Set)
(declare-fun b () Set)
(declare-fun c () Set)
(assert (not (or (member (choice ((?x Elem)) (not (or (not (member ?x (union a b))) (member ?x c)))) a) (member (choice ((?x Elem)) (not (or (not (member ?x (union a b))) (member ?x c)))) b))))
(assert (or (not (member (choice ((?x Elem)) (not (or (not (member ?x (union a b))) (member ?x c)))) (union a b))) (or (member (choice ((?x Elem)) (not (or (not (member ?x (union a b))) (member ?x c)))) a) (member (choice ((?x Elem)) (not (or (not (member ?x (union a b))) (member ?x c)))) b)) (not (= (member (choice ((?x Elem)) (not (or (not (member ?x (union a b))) (member ?x c)))) (union a b)) (or (member (choice ((?x Elem)) (not (or (not (member ?x (union a b))) (member ?x c)))) a) (member (choice ((?x Elem)) (not (or (not (member ?x (union a b))) (member ?x c)))) b))))))
(assert (member (choice ((?x Elem)) (not (or (not (member ?x (union a b))) (member ?x c)))) (union a b)))
(assert (= (member (choice ((?x Elem)) (not (or (not (member ?x (union a b))) (member ?x c)))) (union a b)) (or (member (choice ((?x Elem)) (not (or (not (member ?x (union a b))) (member ?x c)))) a) (member (choice ((?x Elem)) (not (or (not (member ?x (union a b))) (member ?x c)))) b))))
(check-sat)
(exit)
